
  32    4
  10   10   10   10

   0   0   0   0   0  11 2 7 8 14 15 16 27 28 29 30 31 
   1   1   0   1   1   4 26 24 19 3 
   3   2   0   5   2   2 10 4 
   8   4   1   0   2   3 23 20 5 
  10   4   4   2   0   2 21 6 
   7   0   1   3   3   2 18 9 
   5   2   0   4   4   2 19 9 
   1   3   2   0   2   2 19 13 
   8   1   0   5   1   1 11 
   1   4   3   0   3   2 22 20 
   3   6   7   3   0   1 12 
   2   0   4   2   4   1 17 
   8   7   3   3   0   1 17 
   3   0   2   1   4   1 25 
   9   2   0   8   3   1 24 
   7   2   2   0   7   1 19 
   5   0   3   3   3   1 32
   6   4   5   0   3   1 32
   7   3   0   5   1   1 32
   5   1   3   2   0   1 32
   8   0   1   5   2   1 32
   3   1   6   0   4   1 32
   3   2   4   1   0   1 32
   7   2   1   4   0   1 32
   4   4   4   0   1   1 32
   1   0   2   1   4   1 32
   5   0   1   3   3   1 32
   3   4   0   2   4   1 32
   1   0   2   2   4   1 32
   8   4   4   0   4   1 32
   7   0   4   1   3   1 32
   0   0   0   0   0   0 
